c Reduced graph for R50_1g generated by Cyril Grelier
p edge 50 108
e 1 12
e 1 17
e 1 22
e 1 23
e 1 31
e 2 10
e 2 32
e 2 33
e 2 34
e 2 42
e 3 17
e 3 18
e 3 23
e 3 26
e 3 32
e 4 10
e 4 20
e 4 23
e 4 30
e 5 9
e 5 38
e 5 44
e 5 45
e 6 17
e 6 23
e 6 42
e 6 49
e 7 17
e 7 19
e 7 30
e 7 50
e 8 11
e 8 48
e 9 33
e 9 35
e 9 41
e 9 44
e 9 47
e 10 28
e 10 34
e 10 44
e 10 48
e 11 17
e 11 35
e 11 37
e 11 49
e 12 20
e 12 22
e 12 42
e 13 17
e 13 30
e 13 31
e 13 43
e 14 22
e 14 32
e 14 43
e 15 34
e 15 46
e 17 30
e 17 46
e 18 21
e 18 25
e 18 31
e 18 39
e 18 46
e 18 47
e 19 31
e 19 37
e 19 42
e 19 44
e 19 47
e 20 21
e 20 27
e 20 33
e 20 44
e 21 26
e 21 33
e 21 45
e 22 35
e 22 42
e 23 27
e 24 36
e 24 48
e 24 49
e 25 34
e 25 45
e 26 31
e 27 28
e 29 46
e 30 36
e 30 43
e 30 47
e 31 32
e 32 43
e 33 43
e 34 40
e 35 49
e 36 38
e 36 43
e 37 50
e 38 44
e 39 44
e 39 46
e 40 45
e 41 42
e 42 43
e 42 48
e 45 50
